Ag 
 1.0000000000000000
     5.7841334701059592    0.0000000000000000    0.0000000000000000
     2.8920667350529796    5.0092065239915984    0.0000000000000000
     0.0000000000000000    0.0000000000000000   14.7227252019711390
  12
Cartesian
  1.4460333675264898  0.8348677539985997  5.0000000000000000
  4.3381001025794692  0.8348677539985997  5.0000000000000000
  2.8920667350529796  3.3394710159943988  5.0000000000000000
  5.7841334701059592  3.3394710159943988  5.0000000000000000
 -0.0000000000000001  1.6697355079971994  7.3613626009855695
  2.8920667350529796  1.6697355079971994  7.3613626009855695
  1.4460333675264896  4.1743387699929979  7.3613626009855695
  4.3381001025794692  4.1743387699929979  7.3613626009855695
  0.0000000000000000  0.0000000000000000  9.7227252019711390
  2.8920667350529796  0.0000000000000000  9.7227252019711390
  1.4460333675264898  2.5046032619957992  9.7227252019711390
  4.3381001025794692  2.5046032619957992  9.7227252019711390
