Cu4 O2
1.0
4.252000 0.000000 0.000000
-0.000000 4.252000 0.000000
0.000000 0.000000 4.252000
Cu O
4 2
direct
0.250000 0.250000 0.250000 Cu+
0.250000 0.750000 0.750000 Cu+
0.750000 0.250000 0.750000 Cu+
0.750000 0.750000 0.250000 Cu+
0.000000 0.000000 0.000000 O2-
0.500000 0.500000 0.500000 O2-
