Ce4 O8
1.0
5.411000 0.000000 0.000000
-0.000000 5.411000 0.000000
0.000000 0.000000 5.411000
Ce O
4 8
direct
0.000000 0.000000 0.000000 Ce
0.000000 0.500000 0.500000 Ce
0.500000 0.000000 0.500000 Ce
0.500000 0.500000 0.000000 Ce
0.250000 0.250000 0.250000 O
0.250000 0.750000 0.750000 O
0.750000 0.250000 0.750000 O
0.750000 0.750000 0.250000 O
0.250000 0.750000 0.250000 O
0.250000 0.250000 0.750000 O
0.750000 0.750000 0.750000 O
0.750000 0.250000 0.250000 O
